18,9	0,0	17,1	8,8	0,0	0,0	0,0	0,0	0,0	9,7
6,2	11,4	0,0	17,3	7,3	0,0	0,0	15,2	0,0	0,0
0,0	0,0	6,8	0,0	18,9	13,9	0,0	0,0	6,4	0,0
5,7	0,0	15,7	0,0	0,0	0,0	11,4	0,0	0,0	0,0
0,0	14,4	0,0	18,1	6,9	0,0	0,0	19,6	0,0	0,0
0,0	14,9	11,7	0,0	16,5	9,2	0,0	0,0	8,0	0,0
0,0	19,0	0,0	20,0	0,0	0,0	19,4	0,0	0,0	9,1
6,6	0,0	12,2	0,0	0,0	0,0	0,0	0,0	0,0	10,4
0,0	14,8	0,0	9,5	10,6	0,0	0,0	8,7	0,0	0,0
0,0	0,0	13,3	0,0	0,0	16,9	12,5	0,0	0,0	11,7
									
4,4	3,1	4,7	4,1	3,8	3,1	4,6	4,9	3,4	3,8
